ATOMIC_SPECIES
H 1.008   H_ONCV_PBE-1.0.upf
C 12.011  C_ONCV_PBE-1.0.upf
O 15.9994 O_ONCV_PBE-1.0.upf

NUMERICAL_ORBITAL
H_gga_6au_100Ry_2s1p.orb
C_gga_7au_100Ry_2s2p1d.orb
O_gga_7au_100Ry_2s2p1d.orb

LATTICE_CONSTANT
1.8897259886

LATTICE_VECTORS
12.5 0 0
0 12.5 0
0 0 12.5

ATOMIC_POSITIONS
Cartesian

H
0.0
132
   8.363536       10.391823        9.402723 0 0 0
   6.640455       10.574831        9.801737 0 0 0
   7.253651       10.770106        8.182944 0 0 0
   7.878254        8.138434        9.538306 0 0 0
   6.202145        8.304834        9.170256 0 0 0
   7.628338        7.089379        7.405698 0 0 0
   8.254738        8.610529        6.959062 0 0 0
   5.960189        9.418896        6.608585 0 0 0
   5.291991        7.861863        6.940994 0 0 0
   6.640267        6.741921        5.142428 0 0 0
   7.383595        8.304872        4.655397 0 0 0
   5.430836        9.155604        3.937865 0 0 0
   4.371688        7.832660        4.594721 0 0 0
   4.736557        7.338543        2.253122 0 0 0
   5.518052        6.134921        3.311496 0 0 0
   7.021161        6.247354        1.705966 0 0 0
   6.467762        9.213509        1.313745 0 0 0
   6.293154        7.871887        0.204839 0 0 0
   8.404554        9.134226       12.118804 0 0 0
   9.116104        8.788222        1.241230 0 0 0
   8.819905        7.475236        0.169857 0 0 0
   4.511044        8.719121       12.319992 0 0 0
   4.523788       10.428444        0.214099 0 0 0
   3.355777        9.737518       11.555670 0 0 0
   3.222935        9.236473        2.135921 0 0 0
   2.125971       10.151163        1.085349 0 0 0
   2.826266        7.176357        1.139243 0 0 0
   1.968388        7.924680       12.256265 0 0 0
   0.048989        8.551936        1.399837 0 0 0
   0.965968        7.821894        2.683979 0 0 0
  11.689493        6.274411        2.045868 0 0 0
   0.741765        5.557585        1.589652 0 0 0
   7.786989        7.523335        2.787217 0 0 0
   0.274925        6.509887       11.629478 0 0 0
  11.109904        6.792831       12.331158 0 0 0
   0.172554        4.122053       12.449583 0 0 0
  11.884911        4.526891       10.890967 0 0 0
   9.648342        4.634574       12.006451 0 0 0
  10.326407        3.834814        0.938283 0 0 0
  10.313825        1.889430        0.042428 0 0 0
  11.455892        2.328770       11.304249 0 0 0
   8.419995        2.404942       11.223120 0 0 0
   9.379827        2.928442        9.854913 0 0 0
   9.394892        1.274343       10.358530 0 0 0
   2.261760        8.278876        7.942992 0 0 0
   4.404613        3.870466        9.327089 0 0 0
   5.616718        4.492789        8.738875 0 0 0
   2.885095        9.733030        7.595438 0 0 0
  11.759360        3.652246        4.201545 0 0 0
  10.958362        2.991508        3.117013 0 0 0
   9.922075        1.499462        6.495094 0 0 0
   1.869011        3.595469        4.986259 0 0 0
   2.463847        3.345115        3.481570 0 0 0
   9.209267        2.670342        7.255855 0 0 0
   7.802969       12.301378        5.851526 0 0 0
   8.020433        0.356030        7.144483 0 0 0
   8.434836        5.877938        9.758362 0 0 0
   3.698464       11.858228        7.790290 0 0 0
   6.261899        1.296073        2.281775 0 0 0
   9.541666        5.048086        9.039831 0 0 0
  10.747066        8.138514        6.196133 0 0 0
  10.830088        7.513446        7.547752 0 0 0
   0.373907        4.597620        6.570477 0 0 0
   9.210700        4.557973        4.999614 0 0 0
  10.151381        5.826449        5.316673 0 0 0
   0.976666        3.231719        7.132304 0 0 0
   3.600615       11.782575        6.193442 0 0 0
   7.220930        0.226676        1.613789 0 0 0
   4.835489        4.149810       11.811442 0 0 0
   7.696271        4.271481        7.490783 0 0 0
   6.599325        3.988430        6.433022 0 0 0
   5.977315        3.053086       11.993100 0 0 0
  11.613049       10.021652       12.168653 0 0 0
  10.293224        9.845106       11.391586 0 0 0
  12.295793       12.036482        1.514992 0 0 0
  10.179339       12.474008        2.171371 0 0 0
   9.628972        1.039711        3.126356 0 0 0
   0.101244       10.692911        2.122817 0 0 0
   5.314070        1.260354        6.661598 0 0 0
   6.403661        2.200148        7.120649 0 0 0
   2.400026        5.565686        7.273582 0 0 0
   8.259866        2.058268        3.863400 0 0 0
   3.897852        4.852030        6.011025 0 0 0
   3.892499        3.328835        5.942677 0 0 0
   1.766451        0.191430        9.296206 0 0 0
   1.700243        0.007698        3.689431 0 0 0
   1.617856       10.196824        3.065521 0 0 0
   1.391436       10.849884        4.292250 0 0 0
  12.113502        9.664025        5.085181 0 0 0
   0.205652        9.951668        6.396042 0 0 0
   0.213173        8.637939        9.203479 0 0 0
  11.729948        8.205133       10.226308 0 0 0
   0.534875        1.115003        3.388691 0 0 0
  12.212500        1.527834        8.713794 0 0 0
   8.945587        2.324996        5.208175 0 0 0
   0.267309        0.807223       11.867663 0 0 0
  10.589552       12.146941       11.626858 0 0 0
  10.086696       12.132933        0.626038 0 0 0
  10.761227        4.899955        7.046157 0 0 0
  11.214460        3.657407        7.864636 0 0 0
  10.573752        0.150391        4.008512 0 0 0
   9.860073       12.310390        5.379673 0 0 0
   8.827374        3.320800        2.148825 0 0 0
   9.107926        4.719851        2.694139 0 0 0
   5.385113        0.006898        5.411971 0 0 0
   5.927801       11.251551        5.791056 0 0 0
   4.985004        2.453423        3.624195 0 0 0
   6.289434        2.883348        4.333776 0 0 0
  10.875793       11.253738        7.389245 0 0 0
  11.426547       10.590670        8.503575 0 0 0
   3.540426       12.350157        2.750731 0 0 0
   4.161654       11.287159        3.678116 0 0 0
   1.847884        8.681941        4.953253 0 0 0
   1.809553        7.153919        5.434137 0 0 0
   2.258903        2.765656       12.108517 0 0 0
   1.853809        2.540970       10.548300 0 0 0
   0.934315        1.787329        1.656130 0 0 0
   0.881156        3.006706        1.027654 0 0 0
   3.667200        2.024713        7.978547 0 0 0
   4.160011        1.476780        9.239885 0 0 0
   7.803935       11.716548        3.795326 0 0 0
   8.812347       10.447660        3.709159 0 0 0
   1.187989        5.700627        8.220310 0 0 0
   1.085252       11.928839        6.993551 0 0 0
  12.498047       12.136757        5.794645 0 0 0
   0.821110       12.008628       11.177463 0 0 0
   3.720862        1.759218        1.618582 0 0 0
   4.787290        2.789791        1.143236 0 0 0
   3.742801        1.441070        4.645258 0 0 0
   2.490675        0.782178        5.473983 0 0 0
  12.206274        1.424396        7.304390 0 0 0
   0.535378       11.768465        8.882107 0 0 0
C
0.0
20
   7.366903       10.200114        9.078813 0 0 0
  11.843699        4.703334       12.001439 0 0 0
   0.753282        7.723860        1.612007 0 0 0
   6.920275        7.242468        2.166983 0 0 0
   7.166879        8.654560        8.844423 0 0 0
  10.476657        2.604431       11.725649 0 0 0
  12.038467        6.194584       12.394760 0 0 0
   7.374263        8.128736        7.415560 0 0 0
   6.945968        8.255027        1.011647 0 0 0
   2.800704        9.296968        1.132272 0 0 0
   6.151000        8.354280        6.514346 0 0 0
   9.372430        2.290003       10.724200 0 0 0
   8.404200        8.447965        0.486252 0 0 0
   6.478110        7.834869        5.113844 0 0 0
   0.058877        6.365702        1.350679 0 0 0
   2.077331        7.933740        0.848450 0 0 0
   5.339846        8.090718        4.143397 0 0 0
  10.491457        4.039449       12.377696 0 0 0
   3.878205        9.582710        0.005506 0 0 0
   5.571307        7.194096        2.956340 0 0 0
O
0.0
44
   5.329400        4.119811        9.563163 0 0 0
  11.860689        3.089950        3.367877 0 0 0
   2.421677        3.053667        4.402175 0 0 0
   8.415547       12.184015        6.584056 0 0 0
   3.931670       11.333177        6.983446 0 0 0
  10.412847        7.396025        6.666456 0 0 0
  10.045854        4.927844        4.871222 0 0 0
   7.219565        1.064104        2.093620 0 0 0
   7.520139        3.780544        6.684460 0 0 0
  11.017227        9.348372       11.734599 0 0 0
  10.373227        0.913861        2.469593 0 0 0
   5.962926        1.382370        7.358477 0 0 0
  11.350317       11.489177        8.137009 0 0 0
   1.142627        0.429267        3.016573 0 0 0
   0.927114       12.130436        6.076732 0 0 0
  11.992042        9.491582        6.028019 0 0 0
   3.451446       11.443233        3.037149 0 0 0
   4.596931        2.118233        1.933670 0 0 0
  10.744591       12.354033        4.947359 0 0 0
   4.123348        4.067964        6.537503 0 0 0
   3.459732        0.709889        5.217516 0 0 0
   2.127159        7.756573        4.748374 0 0 0
   8.253699        1.778887        4.769212 0 0 0
   0.255370        1.780030        8.004813 0 0 0
   8.461660        4.014876        2.750087 0 0 0
   2.470294        2.941848       11.183482 0 0 0
   2.103824        9.208615        7.690050 0 0 0
   0.996858       10.134270        3.767866 0 0 0
  11.765638        8.345175        9.282141 0 0 0
  10.078302        2.393395        6.934971 0 0 0
   1.537263        2.482829        1.451273 0 0 0
   5.985230       11.833403        5.040187 0 0 0
   8.606170        4.982902        9.369916 0 0 0
   9.789986       11.952453       12.216526 0 0 0
   3.507990        1.259267        8.546999 0 0 0
   1.108216        3.948510        6.492671 0 0 0
   1.406409       11.754705        9.398897 0 0 0
   5.477023        2.377263        4.506624 0 0 0
   5.215639        3.468468       12.470816 0 0 0
   8.589755       11.330825        3.322537 0 0 0
   0.036033       12.414035       11.605274 0 0 0
  11.982033       11.090178        1.490891 0 0 0
  11.150357        4.620838        7.858098 0 0 0
   2.052647        6.075302        8.007550 0 0 0