#SP
&GLOBAL
  PROJECT PBE
  PRINT_LEVEL LOW
  RUN_TYPE ENERGY_FORCE
&END GLOBAL

&FORCE_EVAL
  METHOD Quickstep
  &PRINT
    &FORCES ON
    &END FORCES
  &END PRINT  
  &SUBSYS
    &CELL # 6_c10h22
      A    12.50000000     0.00000000     0.00000000
      B     0.00000000    12.50000000     0.00000000
      C     0.00000000     0.00000000    12.50000000
      PERIODIC XYZ #Direction of applied PBC (geometry aspect)
    &END CELL
	&TOPOLOGY
	  COORD_FILE_FORMAT XYZ
	  COORD_FILE_NAME ../POSCAR1.xyz
	&END TOPOLOGY
    &KIND O    
      ELEMENT O 
      BASIS_SET DZVP-MOLOPT-SR-GTH-q6
      POTENTIAL GTH-PBE
    &END KIND
    &KIND H    
      ELEMENT H 
      BASIS_SET DZVP-MOLOPT-SR-GTH-q1
      POTENTIAL GTH-PBE
    &END KIND
    &KIND N    
      ELEMENT N 
      BASIS_SET DZVP-MOLOPT-SR-GTH-q5
      POTENTIAL GTH-PBE
    &END KIND
    &KIND C    
      ELEMENT C 
      BASIS_SET DZVP-MOLOPT-SR-GTH-q4
      POTENTIAL GTH-PBE
    &END KIND
    &KIND Na   
      ELEMENT Na
      BASIS_SET DZVP-MOLOPT-SR-GTH-q9
      POTENTIAL GTH-PBE
    &END KIND
    &KIND Cl   
      ELEMENT Cl
      BASIS_SET DZVP-MOLOPT-SR-GTH-q7
      POTENTIAL GTH-PBE
    &END KIND	
  &END SUBSYS

  &DFT
    BASIS_SET_FILE_NAME  BASIS_MOLOPT
    POTENTIAL_FILE_NAME  POTENTIAL
#   WFN_RESTART_FILE_NAME -RESTART.wfn
    CHARGE    0 #Net charge
    MULTIPLICITY    1 #Spin multiplicity
    &QS
      EPS_DEFAULT 1.0E-11 #Set all EPS_xxx to values such that the energy will be correct up to this value
    &END QS
    &POISSON
      PERIODIC XYZ #Direction(s) of PBC for calculating electrostatics
      PSOLVER PERIODIC #The way to solve Poisson equation
    &END POISSON
    &XC
      &XC_FUNCTIONAL PBE
      &END XC_FUNCTIONAL
    &END XC
    &MGRID
      CUTOFF  500
      REL_CUTOFF  60
    &END MGRID
    &SCF
      MAX_SCF 1
      EPS_SCF 5.0E-06 #Convergence threshold of density matrix of inner SCF
#     SCF_GUESS RESTART #Use wavefunction from WFN_RESTART_FILE_NAME file as initial guess
      &DIAGONALIZATION
        ALGORITHM STANDARD #Algorithm for diagonalization. DAVIDSON is faster for large systems
      &END DIAGONALIZATION
      &MIXING #How to mix old and new density matrices
        METHOD BROYDEN_MIXING #PULAY_MIXING is also a good alternative
        ALPHA 0.4 #Default. Mixing 40% of new density matrix with the old one
        NBROYDEN 8 #Default is 4. Number of previous steps stored for the actual mixing scheme
      &END MIXING
      &PRINT
        &RESTART #Note: Use "&RESTART OFF" can prevent generating .wfn file
          BACKUP_COPIES 0 #Maximum number of backup copies of wfn file. 0 means never
        &END RESTART
      &END PRINT
    &END SCF
  &END DFT
&END FORCE_EVAL
