variable        NSTEPS          equal 1000000
variable        THERMO_FREQ     equal 10
variable        DUMP_FREQ       equal 10
variable        TEMP            equal 300.0
#variable       PRES            equal 1.000
variable        TAU_T           equal 0.1
#variable       TAU_P           equal 1.000
variable	    SEED1           equal 20240410
variable	    SEED2           equal 20240410
variable        BETA            equal 0.3
variable        KMESH           equal 40    #should be twice the box size in A
variable	    PATH1           string "/home/pengchao/glycine/dpmd/glycine/045_dplr_water_slab_200w_rev_loc"
variable	    DP1             string "frozen_model.pb"  

units           metal
boundary        p p p
atom_style      full

# the neighbor list between real (1) and its corresponding virtual
# type (3) should be excluded
neighbor        1.0 bin
neigh_modify    delay 0 every 1 check yes exclude type 2 3

read_data		/home/pengchao/glycine/geofile/H2O_256_full.data
#read_restart	../6000000.comp

# groups of real and virtual atoms
group           real_atom type 1 2
group           virtual_atom type 3

# bond between real and its corresponding virtual site should be given
# to setup a map between real and virtual atoms. However, no real
# bonded interaction is applied, thus bond_sytle "zero" is used.
pair_style      deepmd ${PATH1}/${DP1}
pair_coeff      * *
bond_style      zero
bond_coeff      *
special_bonds   lj/coul 1 1 1 angle no

# kspace_style "pppm/dplr" should be used. in addition the
# gewald(1/distance) should be set the same as that used in
# training. Currently only ik differentiation is supported.
kspace_style    pppm/dplr 1e-5
kspace_modify   gewald ${BETA} diff ik mesh ${KMESH} ${KMESH} ${KMESH}

# "fix dplr" set the position of the virtual atom, and spread the
# electrostatic interaction asserting on the virtual atom to the real
# atoms. "type_associate" associates the real atom type the its
# corresponding virtual atom type. "bond_type" gives the type of the
# bond between the real and virtual atoms.
fix             0 all dplr model ${PATH1}/${DP1} type_associate 2 3 bond_type 1
fix_modify      0 virial yes

#variable       EFIELD_Z equal 0.1
#fix            0 all dplr model ${PATH1}/${DP1} type_associate 2 3 bond_type 1 efield 0 0 v_EFIELD_Z
#fix_modify     0 energy yes virial yes 

# compute the temperature of real atoms, excluding virtual atom contribution
compute         real_temp real_atom temp
compute         real_press all pressure real_temp

velocity 		all create ${TEMP} ${SEED2} rot yes mom yes dist gaussian
#fix            1 all npt temp ${TEMP} ${TEMP} ${TAU_T} iso ${PRES} ${PRES} ${TAU_P}
fix             1 all nvt temp ${TEMP} ${TEMP} ${TAU_T}
fix_modify      1 temp real_temp #press real_press
# equil - NVT
#velocity       all create ${TEMP} ${SEED2} dist gaussian
fix             dpgen_plm all plumed plumedfile input.plumed outfile output.plumed
#fix            1 all nve
#fix            2 all temp/csvr ${TEMP} ${TEMP} ${TAU_T} ${SEED1}

#fix             shiftcore  all  recenter  0.5  0.5  0.5 shift  all  units  fraction

#dump            all1  all custom ${DUMP_FREQ}   water_10_all.lammpstrj    id type x y z
dump            all2  all custom 100            water_1b_all.lammpstrj    id type x y z
dump            all3  all custom 10000          water_1w_all.lammpstrj    id type x y z
#dump_modify	    all1  sort id
dump_modify	    all2  sort id
dump_modify	    all3  sort id

#dump            real1  real_atom custom ${DUMP_FREQ}   water_10_real.lammpstrj    id type x y z
dump            real2  real_atom custom 100            water_1b_real.lammpstrj    id type x y z
dump            real3  real_atom custom 10000          water_1w_real.lammpstrj    id type x y z
#dump_modify	    real1  sort id
dump_modify	    real2  sort id
dump_modify	    real3  sort id

timestep        0.001
thermo_style    custom step temp density pe ke etotal vol press #v_EFIELD_Z
thermo_modify   temp real_temp press real_press
thermo          ${THERMO_FREQ}
thermo_modify flush yes

restart			100000 restart.*.cont
run             ${NSTEPS}
write_restart	*.comp
write_data      *.data nocoeff
