variable        NSTEPS          equal 1000000
variable        THERMO_FREQ     equal 10
variable        DUMP_FREQ       equal 10
variable        TEMP            equal 300.0
#variable       PRES            equal 1.000
variable        TAU_T           equal 0.040
#variable       TAU_P           equal 1.000
variable	    SEED1           equal 20240430
variable	    SEED2           equal 20240430
variable	    PATH1           string "/home/pengchao/oil/dpmd/100_water_slab_oil_1000w/DP_model"
variable	    DP              string "frozen_model_compressed.pb"  
variable	    DP2             string "frozen_model.pb" 

echo			screen

units           metal
boundary        p p p
atom_style      atomic

read_data		/home/pengchao/oil/dpmd/100_dpmd/geo/H2O_256_atomic.data
#read_restart	../6000000.comp

neighbor        1.0 bin

pair_style      deepmd ${PATH1}/${DP}
pair_coeff      * *

thermo_style    custom step temp density pe ke etotal vol press
thermo          ${THERMO_FREQ}

#velocity 		all create ${TEMP} 20221205 rot yes mom yes dist gaussian
#fix            1 all npt temp ${TEMP} ${TEMP} ${TAU_T} iso ${PRES} ${PRES} ${TAU_P}
#fix            1 all nvt temp ${TEMP} ${TEMP} ${TAU_T}
# equil - NVT
velocity        all create ${TEMP} ${SEED2} dist gaussian
fix             dpgen_plm all plumed plumedfile input.plumed outfile output.plumed
fix             1 all nve
fix             2 all temp/csvr ${TEMP} ${TEMP} ${TAU_T} ${SEED1}

#fix             shiftcore  all  recenter  0.5  0.5  0.5 shift  all  units  fraction

#dump           bulk1  all custom ${DUMP_FREQ}   bulk_10.lammpstrj    id type x y z
dump            bulk2  all custom 500            bulk_5b.lammpstrj    id type x y z
dump            bulk3  all custom 10000          bulk_1w.lammpstrj    id type x y z
#dump_modify	bulk1  sort id
dump_modify	    bulk2  sort id
dump_modify	    bulk3  sort id

restart			100000 restart.*.cont

timestep        0.001
run             ${NSTEPS}

write_restart	*.comp
write_data      *.data
